
(set-option :produce-models true)
(set-option :inline-size-limit 10000)

(declare-const var0 String)

(push 1)
(assert (str.in.re var0 (re.* (re.range "\x01" "\xff"))))
(assert (str.in.re var0 (re.++ (re.*? re.allchar) (re.++ (re.++ (str.to.re "&") (re.++ (str.to.re "l") (re.++ (str.to.re "t") (re.++ (str.to.re ";") (re.++ (str.to.re "a") (re.++ (re.* (re.union (re.range "a" "z") (re.union (re.range "A" "Z") (re.union (re.range "0" "9") (re.union (str.to.re " ") (re.union (str.to.re "=") (re.union (str.to.re "&") (re.union (str.to.re "q") (re.union (str.to.re "u") (re.union (str.to.re "o") (re.union (str.to.re "t") (re.union (str.to.re ";") (re.union (str.to.re "&") (re.union (str.to.re "#") (re.union (str.to.re "3") (re.union (str.to.re "9") (re.union (str.to.re ";") (re.union (str.to.re ".") (re.union (str.to.re ":") (re.union (str.to.re ";") (str.to.re "?"))))))))))))))))))))) (re.++ ((_ re.capture 1) (re.++ (str.to.re "n") (re.++ (str.to.re "a") (re.++ (str.to.re "m") (re.++ (str.to.re "e") (str.to.re "=")))))) (re.++ (re.* (re.union (re.range "a" "z") (re.union (re.range "A" "Z") (re.union (re.range "0" "9") (re.union (str.to.re " ") (re.union (str.to.re "=") (re.union (str.to.re "&") (re.union (str.to.re "q") (re.union (str.to.re "u") (re.union (str.to.re "o") (re.union (str.to.re "t") (re.union (str.to.re ";") (re.union (str.to.re "&") (re.union (str.to.re "#") (re.union (str.to.re "3") (re.union (str.to.re "9") (re.union (str.to.re ";") (re.union (str.to.re ".") (re.union (str.to.re ":") (re.union (str.to.re ";") (str.to.re "?"))))))))))))))))))))) (re.++ (re.* (re.union (str.to.re " ") (re.union (str.to.re "\u{0b}") (re.union (str.to.re "\u{0a}") (re.union (str.to.re "\u{0d}") (re.union (str.to.re "\u{09}") (str.to.re "\u{0c}"))))))) ((_ re.capture 2) (re.union ((_ re.capture 3) (re.++ (str.to.re "/") (re.++ (str.to.re "&") (re.++ (str.to.re "g") (re.++ (str.to.re "t") (str.to.re ";")))))) ((_ re.capture 4) (re.++ (str.to.re "&") (re.++ (str.to.re "g") (re.++ (str.to.re "t") (re.++ (str.to.re ";") (re.++ (re.* (re.union (re.range "a" "z") (re.union (re.range "A" "Z") (re.union (re.range "0" "9") (re.union (str.to.re " ") (re.union (str.to.re "=") (re.union (str.to.re "&") (re.union (str.to.re "q") (re.union (str.to.re "u") (re.union (str.to.re "o") (re.union (str.to.re "t") (re.union (str.to.re ";") (re.union (str.to.re "&") (re.union (str.to.re "#") (re.union (str.to.re "3") (re.union (str.to.re "9") (re.union (str.to.re ";") (re.union (str.to.re "&") (re.union (str.to.re "l") (re.union (str.to.re "t") (re.union (str.to.re ";") (re.union (str.to.re "&") (re.union (str.to.re "g") (re.union (str.to.re "t") (re.union (str.to.re ";") (re.union (str.to.re ".") (re.union (str.to.re ":") (re.union (str.to.re ";") (str.to.re "?"))))))))))))))))))))))))))))) (re.++ (str.to.re "&") (re.++ (str.to.re "l") (re.++ (str.to.re "t") (re.++ (str.to.re ";") (re.++ (str.to.re "/") (re.++ (str.to.re "a") (re.++ (str.to.re "&") (re.++ (str.to.re "g") (re.++ (str.to.re "t") (str.to.re ";"))))))))))))))))))))))))))) re.all))))	; match!==null
(assert (not (str.in.re ((_ str.extract 1) var0 (re.++ (re.*? re.allchar) (re.++ (re.++ (str.to.re "&") (re.++ (str.to.re "l") (re.++ (str.to.re "t") (re.++ (str.to.re ";") (re.++ (str.to.re "a") (re.++ (re.* (re.union (re.range "a" "z") (re.union (re.range "A" "Z") (re.union (re.range "0" "9") (re.union (str.to.re " ") (re.union (str.to.re "=") (re.union (str.to.re "&") (re.union (str.to.re "q") (re.union (str.to.re "u") (re.union (str.to.re "o") (re.union (str.to.re "t") (re.union (str.to.re ";") (re.union (str.to.re "&") (re.union (str.to.re "#") (re.union (str.to.re "3") (re.union (str.to.re "9") (re.union (str.to.re ";") (re.union (str.to.re ".") (re.union (str.to.re ":") (re.union (str.to.re ";") (str.to.re "?"))))))))))))))))))))) (re.++ ((_ re.capture 1) (re.++ (str.to.re "n") (re.++ (str.to.re "a") (re.++ (str.to.re "m") (re.++ (str.to.re "e") (str.to.re "=")))))) (re.++ (re.* (re.union (re.range "a" "z") (re.union (re.range "A" "Z") (re.union (re.range "0" "9") (re.union (str.to.re " ") (re.union (str.to.re "=") (re.union (str.to.re "&") (re.union (str.to.re "q") (re.union (str.to.re "u") (re.union (str.to.re "o") (re.union (str.to.re "t") (re.union (str.to.re ";") (re.union (str.to.re "&") (re.union (str.to.re "#") (re.union (str.to.re "3") (re.union (str.to.re "9") (re.union (str.to.re ";") (re.union (str.to.re ".") (re.union (str.to.re ":") (re.union (str.to.re ";") (str.to.re "?"))))))))))))))))))))) (re.++ (re.* (re.union (str.to.re " ") (re.union (str.to.re "\u{0b}") (re.union (str.to.re "\u{0a}") (re.union (str.to.re "\u{0d}") (re.union (str.to.re "\u{09}") (str.to.re "\u{0c}"))))))) ((_ re.capture 2) (re.union ((_ re.capture 3) (re.++ (str.to.re "/") (re.++ (str.to.re "&") (re.++ (str.to.re "g") (re.++ (str.to.re "t") (str.to.re ";")))))) ((_ re.capture 4) (re.++ (str.to.re "&") (re.++ (str.to.re "g") (re.++ (str.to.re "t") (re.++ (str.to.re ";") (re.++ (re.* (re.union (re.range "a" "z") (re.union (re.range "A" "Z") (re.union (re.range "0" "9") (re.union (str.to.re " ") (re.union (str.to.re "=") (re.union (str.to.re "&") (re.union (str.to.re "q") (re.union (str.to.re "u") (re.union (str.to.re "o") (re.union (str.to.re "t") (re.union (str.to.re ";") (re.union (str.to.re "&") (re.union (str.to.re "#") (re.union (str.to.re "3") (re.union (str.to.re "9") (re.union (str.to.re ";") (re.union (str.to.re "&") (re.union (str.to.re "l") (re.union (str.to.re "t") (re.union (str.to.re ";") (re.union (str.to.re "&") (re.union (str.to.re "g") (re.union (str.to.re "t") (re.union (str.to.re ";") (re.union (str.to.re ".") (re.union (str.to.re ":") (re.union (str.to.re ";") (str.to.re "?"))))))))))))))))))))))))))))) (re.++ (str.to.re "&") (re.++ (str.to.re "l") (re.++ (str.to.re "t") (re.++ (str.to.re ";") (re.++ (str.to.re "/") (re.++ (str.to.re "a") (re.++ (str.to.re "&") (re.++ (str.to.re "g") (re.++ (str.to.re "t") (str.to.re ";"))))))))))))))))))))))))))) re.all))) (str.to.re "\x00"))))
;match[1]!==null
(assert (str.in.re ((_ str.extract 1) var0 (re.++ (re.*? re.allchar) (re.++ (re.++ (str.to.re "&") (re.++ (str.to.re "l") (re.++ (str.to.re "t") (re.++ (str.to.re ";") (re.++ (str.to.re "a") (re.++ (re.* (re.union (re.range "a" "z") (re.union (re.range "A" "Z") (re.union (re.range "0" "9") (re.union (str.to.re " ") (re.union (str.to.re "=") (re.union (str.to.re "&") (re.union (str.to.re "q") (re.union (str.to.re "u") (re.union (str.to.re "o") (re.union (str.to.re "t") (re.union (str.to.re ";") (re.union (str.to.re "&") (re.union (str.to.re "#") (re.union (str.to.re "3") (re.union (str.to.re "9") (re.union (str.to.re ";") (re.union (str.to.re ".") (re.union (str.to.re ":") (re.union (str.to.re ";") (str.to.re "?"))))))))))))))))))))) (re.++ ((_ re.capture 1) (re.++ (str.to.re "n") (re.++ (str.to.re "a") (re.++ (str.to.re "m") (re.++ (str.to.re "e") (str.to.re "=")))))) (re.++ (re.* (re.union (re.range "a" "z") (re.union (re.range "A" "Z") (re.union (re.range "0" "9") (re.union (str.to.re " ") (re.union (str.to.re "=") (re.union (str.to.re "&") (re.union (str.to.re "q") (re.union (str.to.re "u") (re.union (str.to.re "o") (re.union (str.to.re "t") (re.union (str.to.re ";") (re.union (str.to.re "&") (re.union (str.to.re "#") (re.union (str.to.re "3") (re.union (str.to.re "9") (re.union (str.to.re ";") (re.union (str.to.re ".") (re.union (str.to.re ":") (re.union (str.to.re ";") (str.to.re "?"))))))))))))))))))))) (re.++ (re.* (re.union (str.to.re " ") (re.union (str.to.re "\u{0b}") (re.union (str.to.re "\u{0a}") (re.union (str.to.re "\u{0d}") (re.union (str.to.re "\u{09}") (str.to.re "\u{0c}"))))))) ((_ re.capture 2) (re.union ((_ re.capture 3) (re.++ (str.to.re "/") (re.++ (str.to.re "&") (re.++ (str.to.re "g") (re.++ (str.to.re "t") (str.to.re ";")))))) ((_ re.capture 4) (re.++ (str.to.re "&") (re.++ (str.to.re "g") (re.++ (str.to.re "t") (re.++ (str.to.re ";") (re.++ (re.* (re.union (re.range "a" "z") (re.union (re.range "A" "Z") (re.union (re.range "0" "9") (re.union (str.to.re " ") (re.union (str.to.re "=") (re.union (str.to.re "&") (re.union (str.to.re "q") (re.union (str.to.re "u") (re.union (str.to.re "o") (re.union (str.to.re "t") (re.union (str.to.re ";") (re.union (str.to.re "&") (re.union (str.to.re "#") (re.union (str.to.re "3") (re.union (str.to.re "9") (re.union (str.to.re ";") (re.union (str.to.re "&") (re.union (str.to.re "l") (re.union (str.to.re "t") (re.union (str.to.re ";") (re.union (str.to.re "&") (re.union (str.to.re "g") (re.union (str.to.re "t") (re.union (str.to.re ";") (re.union (str.to.re ".") (re.union (str.to.re ":") (re.union (str.to.re ";") (str.to.re "?"))))))))))))))))))))))))))))) (re.++ (str.to.re "&") (re.++ (str.to.re "l") (re.++ (str.to.re "t") (re.++ (str.to.re ";") (re.++ (str.to.re "/") (re.++ (str.to.re "a") (re.++ (str.to.re "&") (re.++ (str.to.re "g") (re.++ (str.to.re "t") (str.to.re ";"))))))))))))))))))))))))))) re.all))) (re.++ re.all(re.+ (re.range "a" "z")) re.all) ))
;/[a-z]+/.test(match[1]) == true
(check-sat)
(get-model)
(pop 1)
(push 1)
(assert (str.in.re var0 (re.* (re.range "\x01" "\xff"))))
(assert (str.in.re var0 (re.++ (re.*? re.allchar) (re.++ (re.++ (str.to.re "&") (re.++ (str.to.re "l") (re.++ (str.to.re "t") (re.++ (str.to.re ";") (re.++ (str.to.re "a") (re.++ (re.* (re.union (re.range "a" "z") (re.union (re.range "A" "Z") (re.union (re.range "0" "9") (re.union (str.to.re " ") (re.union (str.to.re "=") (re.union (str.to.re "&") (re.union (str.to.re "q") (re.union (str.to.re "u") (re.union (str.to.re "o") (re.union (str.to.re "t") (re.union (str.to.re ";") (re.union (str.to.re "&") (re.union (str.to.re "#") (re.union (str.to.re "3") (re.union (str.to.re "9") (re.union (str.to.re ";") (re.union (str.to.re ".") (re.union (str.to.re ":") (re.union (str.to.re ";") (str.to.re "?"))))))))))))))))))))) (re.++ ((_ re.capture 1) (re.++ (str.to.re "n") (re.++ (str.to.re "a") (re.++ (str.to.re "m") (re.++ (str.to.re "e") (str.to.re "=")))))) (re.++ (re.* (re.union (re.range "a" "z") (re.union (re.range "A" "Z") (re.union (re.range "0" "9") (re.union (str.to.re " ") (re.union (str.to.re "=") (re.union (str.to.re "&") (re.union (str.to.re "q") (re.union (str.to.re "u") (re.union (str.to.re "o") (re.union (str.to.re "t") (re.union (str.to.re ";") (re.union (str.to.re "&") (re.union (str.to.re "#") (re.union (str.to.re "3") (re.union (str.to.re "9") (re.union (str.to.re ";") (re.union (str.to.re ".") (re.union (str.to.re ":") (re.union (str.to.re ";") (str.to.re "?"))))))))))))))))))))) (re.++ (re.* (re.union (str.to.re " ") (re.union (str.to.re "\u{0b}") (re.union (str.to.re "\u{0a}") (re.union (str.to.re "\u{0d}") (re.union (str.to.re "\u{09}") (str.to.re "\u{0c}"))))))) ((_ re.capture 2) (re.union ((_ re.capture 3) (re.++ (str.to.re "/") (re.++ (str.to.re "&") (re.++ (str.to.re "g") (re.++ (str.to.re "t") (str.to.re ";")))))) ((_ re.capture 4) (re.++ (str.to.re "&") (re.++ (str.to.re "g") (re.++ (str.to.re "t") (re.++ (str.to.re ";") (re.++ (re.* (re.union (re.range "a" "z") (re.union (re.range "A" "Z") (re.union (re.range "0" "9") (re.union (str.to.re " ") (re.union (str.to.re "=") (re.union (str.to.re "&") (re.union (str.to.re "q") (re.union (str.to.re "u") (re.union (str.to.re "o") (re.union (str.to.re "t") (re.union (str.to.re ";") (re.union (str.to.re "&") (re.union (str.to.re "#") (re.union (str.to.re "3") (re.union (str.to.re "9") (re.union (str.to.re ";") (re.union (str.to.re "&") (re.union (str.to.re "l") (re.union (str.to.re "t") (re.union (str.to.re ";") (re.union (str.to.re "&") (re.union (str.to.re "g") (re.union (str.to.re "t") (re.union (str.to.re ";") (re.union (str.to.re ".") (re.union (str.to.re ":") (re.union (str.to.re ";") (str.to.re "?"))))))))))))))))))))))))))))) (re.++ (str.to.re "&") (re.++ (str.to.re "l") (re.++ (str.to.re "t") (re.++ (str.to.re ";") (re.++ (str.to.re "/") (re.++ (str.to.re "a") (re.++ (str.to.re "&") (re.++ (str.to.re "g") (re.++ (str.to.re "t") (str.to.re ";"))))))))))))))))))))))))))) re.all))))	; match!==null
(assert (not (str.in.re ((_ str.extract 1) var0 (re.++ (re.*? re.allchar) (re.++ (re.++ (str.to.re "&") (re.++ (str.to.re "l") (re.++ (str.to.re "t") (re.++ (str.to.re ";") (re.++ (str.to.re "a") (re.++ (re.* (re.union (re.range "a" "z") (re.union (re.range "A" "Z") (re.union (re.range "0" "9") (re.union (str.to.re " ") (re.union (str.to.re "=") (re.union (str.to.re "&") (re.union (str.to.re "q") (re.union (str.to.re "u") (re.union (str.to.re "o") (re.union (str.to.re "t") (re.union (str.to.re ";") (re.union (str.to.re "&") (re.union (str.to.re "#") (re.union (str.to.re "3") (re.union (str.to.re "9") (re.union (str.to.re ";") (re.union (str.to.re ".") (re.union (str.to.re ":") (re.union (str.to.re ";") (str.to.re "?"))))))))))))))))))))) (re.++ ((_ re.capture 1) (re.++ (str.to.re "n") (re.++ (str.to.re "a") (re.++ (str.to.re "m") (re.++ (str.to.re "e") (str.to.re "=")))))) (re.++ (re.* (re.union (re.range "a" "z") (re.union (re.range "A" "Z") (re.union (re.range "0" "9") (re.union (str.to.re " ") (re.union (str.to.re "=") (re.union (str.to.re "&") (re.union (str.to.re "q") (re.union (str.to.re "u") (re.union (str.to.re "o") (re.union (str.to.re "t") (re.union (str.to.re ";") (re.union (str.to.re "&") (re.union (str.to.re "#") (re.union (str.to.re "3") (re.union (str.to.re "9") (re.union (str.to.re ";") (re.union (str.to.re ".") (re.union (str.to.re ":") (re.union (str.to.re ";") (str.to.re "?"))))))))))))))))))))) (re.++ (re.* (re.union (str.to.re " ") (re.union (str.to.re "\u{0b}") (re.union (str.to.re "\u{0a}") (re.union (str.to.re "\u{0d}") (re.union (str.to.re "\u{09}") (str.to.re "\u{0c}"))))))) ((_ re.capture 2) (re.union ((_ re.capture 3) (re.++ (str.to.re "/") (re.++ (str.to.re "&") (re.++ (str.to.re "g") (re.++ (str.to.re "t") (str.to.re ";")))))) ((_ re.capture 4) (re.++ (str.to.re "&") (re.++ (str.to.re "g") (re.++ (str.to.re "t") (re.++ (str.to.re ";") (re.++ (re.* (re.union (re.range "a" "z") (re.union (re.range "A" "Z") (re.union (re.range "0" "9") (re.union (str.to.re " ") (re.union (str.to.re "=") (re.union (str.to.re "&") (re.union (str.to.re "q") (re.union (str.to.re "u") (re.union (str.to.re "o") (re.union (str.to.re "t") (re.union (str.to.re ";") (re.union (str.to.re "&") (re.union (str.to.re "#") (re.union (str.to.re "3") (re.union (str.to.re "9") (re.union (str.to.re ";") (re.union (str.to.re "&") (re.union (str.to.re "l") (re.union (str.to.re "t") (re.union (str.to.re ";") (re.union (str.to.re "&") (re.union (str.to.re "g") (re.union (str.to.re "t") (re.union (str.to.re ";") (re.union (str.to.re ".") (re.union (str.to.re ":") (re.union (str.to.re ";") (str.to.re "?"))))))))))))))))))))))))))))) (re.++ (str.to.re "&") (re.++ (str.to.re "l") (re.++ (str.to.re "t") (re.++ (str.to.re ";") (re.++ (str.to.re "/") (re.++ (str.to.re "a") (re.++ (str.to.re "&") (re.++ (str.to.re "g") (re.++ (str.to.re "t") (str.to.re ";"))))))))))))))))))))))))))) re.all))) (str.to.re "\x00"))))	
;match[1]!==null
(assert (not (str.in.re ((_ str.extract 1) var0 (re.++ (re.*? re.allchar) (re.++ (re.++ (str.to.re "&") (re.++ (str.to.re "l") (re.++ (str.to.re "t") (re.++ (str.to.re ";") (re.++ (str.to.re "a") (re.++ (re.* (re.union (re.range "a" "z") (re.union (re.range "A" "Z") (re.union (re.range "0" "9") (re.union (str.to.re " ") (re.union (str.to.re "=") (re.union (str.to.re "&") (re.union (str.to.re "q") (re.union (str.to.re "u") (re.union (str.to.re "o") (re.union (str.to.re "t") (re.union (str.to.re ";") (re.union (str.to.re "&") (re.union (str.to.re "#") (re.union (str.to.re "3") (re.union (str.to.re "9") (re.union (str.to.re ";") (re.union (str.to.re ".") (re.union (str.to.re ":") (re.union (str.to.re ";") (str.to.re "?"))))))))))))))))))))) (re.++ ((_ re.capture 1) (re.++ (str.to.re "n") (re.++ (str.to.re "a") (re.++ (str.to.re "m") (re.++ (str.to.re "e") (str.to.re "=")))))) (re.++ (re.* (re.union (re.range "a" "z") (re.union (re.range "A" "Z") (re.union (re.range "0" "9") (re.union (str.to.re " ") (re.union (str.to.re "=") (re.union (str.to.re "&") (re.union (str.to.re "q") (re.union (str.to.re "u") (re.union (str.to.re "o") (re.union (str.to.re "t") (re.union (str.to.re ";") (re.union (str.to.re "&") (re.union (str.to.re "#") (re.union (str.to.re "3") (re.union (str.to.re "9") (re.union (str.to.re ";") (re.union (str.to.re ".") (re.union (str.to.re ":") (re.union (str.to.re ";") (str.to.re "?"))))))))))))))))))))) (re.++ (re.* (re.union (str.to.re " ") (re.union (str.to.re "\u{0b}") (re.union (str.to.re "\u{0a}") (re.union (str.to.re "\u{0d}") (re.union (str.to.re "\u{09}") (str.to.re "\u{0c}"))))))) ((_ re.capture 2) (re.union ((_ re.capture 3) (re.++ (str.to.re "/") (re.++ (str.to.re "&") (re.++ (str.to.re "g") (re.++ (str.to.re "t") (str.to.re ";")))))) ((_ re.capture 4) (re.++ (str.to.re "&") (re.++ (str.to.re "g") (re.++ (str.to.re "t") (re.++ (str.to.re ";") (re.++ (re.* (re.union (re.range "a" "z") (re.union (re.range "A" "Z") (re.union (re.range "0" "9") (re.union (str.to.re " ") (re.union (str.to.re "=") (re.union (str.to.re "&") (re.union (str.to.re "q") (re.union (str.to.re "u") (re.union (str.to.re "o") (re.union (str.to.re "t") (re.union (str.to.re ";") (re.union (str.to.re "&") (re.union (str.to.re "#") (re.union (str.to.re "3") (re.union (str.to.re "9") (re.union (str.to.re ";") (re.union (str.to.re "&") (re.union (str.to.re "l") (re.union (str.to.re "t") (re.union (str.to.re ";") (re.union (str.to.re "&") (re.union (str.to.re "g") (re.union (str.to.re "t") (re.union (str.to.re ";") (re.union (str.to.re ".") (re.union (str.to.re ":") (re.union (str.to.re ";") (str.to.re "?"))))))))))))))))))))))))))))) (re.++ (str.to.re "&") (re.++ (str.to.re "l") (re.++ (str.to.re "t") (re.++ (str.to.re ";") (re.++ (str.to.re "/") (re.++ (str.to.re "a") (re.++ (str.to.re "&") (re.++ (str.to.re "g") (re.++ (str.to.re "t") (str.to.re ";"))))))))))))))))))))))))))) re.all))) (re.++ re.all(re.+ (re.range "a" "z")) re.all) )))
;/[a-z]+/.test(match[1]) == false	
(check-sat)
(get-model)
(pop 1)
(push 1)
(assert (str.in.re var0 (re.* (re.range "\x01" "\xff"))))
(assert (str.in.re var0 (re.++ (re.*? re.allchar) (re.++ (re.++ (str.to.re "&") (re.++ (str.to.re "l") (re.++ (str.to.re "t") (re.++ (str.to.re ";") (re.++ (str.to.re "a") (re.++ (re.* (re.union (re.range "a" "z") (re.union (re.range "A" "Z") (re.union (re.range "0" "9") (re.union (str.to.re " ") (re.union (str.to.re "=") (re.union (str.to.re "&") (re.union (str.to.re "q") (re.union (str.to.re "u") (re.union (str.to.re "o") (re.union (str.to.re "t") (re.union (str.to.re ";") (re.union (str.to.re "&") (re.union (str.to.re "#") (re.union (str.to.re "3") (re.union (str.to.re "9") (re.union (str.to.re ";") (re.union (str.to.re ".") (re.union (str.to.re ":") (re.union (str.to.re ";") (str.to.re "?"))))))))))))))))))))) (re.++ ((_ re.capture 1) (re.++ (str.to.re "n") (re.++ (str.to.re "a") (re.++ (str.to.re "m") (re.++ (str.to.re "e") (str.to.re "=")))))) (re.++ (re.* (re.union (re.range "a" "z") (re.union (re.range "A" "Z") (re.union (re.range "0" "9") (re.union (str.to.re " ") (re.union (str.to.re "=") (re.union (str.to.re "&") (re.union (str.to.re "q") (re.union (str.to.re "u") (re.union (str.to.re "o") (re.union (str.to.re "t") (re.union (str.to.re ";") (re.union (str.to.re "&") (re.union (str.to.re "#") (re.union (str.to.re "3") (re.union (str.to.re "9") (re.union (str.to.re ";") (re.union (str.to.re ".") (re.union (str.to.re ":") (re.union (str.to.re ";") (str.to.re "?"))))))))))))))))))))) (re.++ (re.* (re.union (str.to.re " ") (re.union (str.to.re "\u{0b}") (re.union (str.to.re "\u{0a}") (re.union (str.to.re "\u{0d}") (re.union (str.to.re "\u{09}") (str.to.re "\u{0c}"))))))) ((_ re.capture 2) (re.union ((_ re.capture 3) (re.++ (str.to.re "/") (re.++ (str.to.re "&") (re.++ (str.to.re "g") (re.++ (str.to.re "t") (str.to.re ";")))))) ((_ re.capture 4) (re.++ (str.to.re "&") (re.++ (str.to.re "g") (re.++ (str.to.re "t") (re.++ (str.to.re ";") (re.++ (re.* (re.union (re.range "a" "z") (re.union (re.range "A" "Z") (re.union (re.range "0" "9") (re.union (str.to.re " ") (re.union (str.to.re "=") (re.union (str.to.re "&") (re.union (str.to.re "q") (re.union (str.to.re "u") (re.union (str.to.re "o") (re.union (str.to.re "t") (re.union (str.to.re ";") (re.union (str.to.re "&") (re.union (str.to.re "#") (re.union (str.to.re "3") (re.union (str.to.re "9") (re.union (str.to.re ";") (re.union (str.to.re "&") (re.union (str.to.re "l") (re.union (str.to.re "t") (re.union (str.to.re ";") (re.union (str.to.re "&") (re.union (str.to.re "g") (re.union (str.to.re "t") (re.union (str.to.re ";") (re.union (str.to.re ".") (re.union (str.to.re ":") (re.union (str.to.re ";") (str.to.re "?"))))))))))))))))))))))))))))) (re.++ (str.to.re "&") (re.++ (str.to.re "l") (re.++ (str.to.re "t") (re.++ (str.to.re ";") (re.++ (str.to.re "/") (re.++ (str.to.re "a") (re.++ (str.to.re "&") (re.++ (str.to.re "g") (re.++ (str.to.re "t") (str.to.re ";"))))))))))))))))))))))))))) re.all))))	; match!==null
(assert (str.in.re ((_ str.extract 1) var0 (re.++ (re.*? re.allchar) (re.++ (re.++ (str.to.re "&") (re.++ (str.to.re "l") (re.++ (str.to.re "t") (re.++ (str.to.re ";") (re.++ (str.to.re "a") (re.++ (re.* (re.union (re.range "a" "z") (re.union (re.range "A" "Z") (re.union (re.range "0" "9") (re.union (str.to.re " ") (re.union (str.to.re "=") (re.union (str.to.re "&") (re.union (str.to.re "q") (re.union (str.to.re "u") (re.union (str.to.re "o") (re.union (str.to.re "t") (re.union (str.to.re ";") (re.union (str.to.re "&") (re.union (str.to.re "#") (re.union (str.to.re "3") (re.union (str.to.re "9") (re.union (str.to.re ";") (re.union (str.to.re ".") (re.union (str.to.re ":") (re.union (str.to.re ";") (str.to.re "?"))))))))))))))))))))) (re.++ ((_ re.capture 1) (re.++ (str.to.re "n") (re.++ (str.to.re "a") (re.++ (str.to.re "m") (re.++ (str.to.re "e") (str.to.re "=")))))) (re.++ (re.* (re.union (re.range "a" "z") (re.union (re.range "A" "Z") (re.union (re.range "0" "9") (re.union (str.to.re " ") (re.union (str.to.re "=") (re.union (str.to.re "&") (re.union (str.to.re "q") (re.union (str.to.re "u") (re.union (str.to.re "o") (re.union (str.to.re "t") (re.union (str.to.re ";") (re.union (str.to.re "&") (re.union (str.to.re "#") (re.union (str.to.re "3") (re.union (str.to.re "9") (re.union (str.to.re ";") (re.union (str.to.re ".") (re.union (str.to.re ":") (re.union (str.to.re ";") (str.to.re "?"))))))))))))))))))))) (re.++ (re.* (re.union (str.to.re " ") (re.union (str.to.re "\u{0b}") (re.union (str.to.re "\u{0a}") (re.union (str.to.re "\u{0d}") (re.union (str.to.re "\u{09}") (str.to.re "\u{0c}"))))))) ((_ re.capture 2) (re.union ((_ re.capture 3) (re.++ (str.to.re "/") (re.++ (str.to.re "&") (re.++ (str.to.re "g") (re.++ (str.to.re "t") (str.to.re ";")))))) ((_ re.capture 4) (re.++ (str.to.re "&") (re.++ (str.to.re "g") (re.++ (str.to.re "t") (re.++ (str.to.re ";") (re.++ (re.* (re.union (re.range "a" "z") (re.union (re.range "A" "Z") (re.union (re.range "0" "9") (re.union (str.to.re " ") (re.union (str.to.re "=") (re.union (str.to.re "&") (re.union (str.to.re "q") (re.union (str.to.re "u") (re.union (str.to.re "o") (re.union (str.to.re "t") (re.union (str.to.re ";") (re.union (str.to.re "&") (re.union (str.to.re "#") (re.union (str.to.re "3") (re.union (str.to.re "9") (re.union (str.to.re ";") (re.union (str.to.re "&") (re.union (str.to.re "l") (re.union (str.to.re "t") (re.union (str.to.re ";") (re.union (str.to.re "&") (re.union (str.to.re "g") (re.union (str.to.re "t") (re.union (str.to.re ";") (re.union (str.to.re ".") (re.union (str.to.re ":") (re.union (str.to.re ";") (str.to.re "?"))))))))))))))))))))))))))))) (re.++ (str.to.re "&") (re.++ (str.to.re "l") (re.++ (str.to.re "t") (re.++ (str.to.re ";") (re.++ (str.to.re "/") (re.++ (str.to.re "a") (re.++ (str.to.re "&") (re.++ (str.to.re "g") (re.++ (str.to.re "t") (str.to.re ";"))))))))))))))))))))))))))) re.all))) (str.to.re "\x00")))
;match[1]==null
(check-sat)
(get-model)
(pop 1)
(push 1)
(assert (str.in.re var0 (re.* (re.range "\x01" "\xff"))))
(assert (not (str.in.re var0 (re.++ (re.*? re.allchar) (re.++ (re.++ (str.to.re "&") (re.++ (str.to.re "l") (re.++ (str.to.re "t") (re.++ (str.to.re ";") (re.++ (str.to.re "a") (re.++ (re.* (re.union (re.range "a" "z") (re.union (re.range "A" "Z") (re.union (re.range "0" "9") (re.union (str.to.re " ") (re.union (str.to.re "=") (re.union (str.to.re "&") (re.union (str.to.re "q") (re.union (str.to.re "u") (re.union (str.to.re "o") (re.union (str.to.re "t") (re.union (str.to.re ";") (re.union (str.to.re "&") (re.union (str.to.re "#") (re.union (str.to.re "3") (re.union (str.to.re "9") (re.union (str.to.re ";") (re.union (str.to.re ".") (re.union (str.to.re ":") (re.union (str.to.re ";") (str.to.re "?"))))))))))))))))))))) (re.++ ((_ re.capture 1) (re.++ (str.to.re "n") (re.++ (str.to.re "a") (re.++ (str.to.re "m") (re.++ (str.to.re "e") (str.to.re "=")))))) (re.++ (re.* (re.union (re.range "a" "z") (re.union (re.range "A" "Z") (re.union (re.range "0" "9") (re.union (str.to.re " ") (re.union (str.to.re "=") (re.union (str.to.re "&") (re.union (str.to.re "q") (re.union (str.to.re "u") (re.union (str.to.re "o") (re.union (str.to.re "t") (re.union (str.to.re ";") (re.union (str.to.re "&") (re.union (str.to.re "#") (re.union (str.to.re "3") (re.union (str.to.re "9") (re.union (str.to.re ";") (re.union (str.to.re ".") (re.union (str.to.re ":") (re.union (str.to.re ";") (str.to.re "?"))))))))))))))))))))) (re.++ (re.* (re.union (str.to.re " ") (re.union (str.to.re "\u{0b}") (re.union (str.to.re "\u{0a}") (re.union (str.to.re "\u{0d}") (re.union (str.to.re "\u{09}") (str.to.re "\u{0c}"))))))) ((_ re.capture 2) (re.union ((_ re.capture 3) (re.++ (str.to.re "/") (re.++ (str.to.re "&") (re.++ (str.to.re "g") (re.++ (str.to.re "t") (str.to.re ";")))))) ((_ re.capture 4) (re.++ (str.to.re "&") (re.++ (str.to.re "g") (re.++ (str.to.re "t") (re.++ (str.to.re ";") (re.++ (re.* (re.union (re.range "a" "z") (re.union (re.range "A" "Z") (re.union (re.range "0" "9") (re.union (str.to.re " ") (re.union (str.to.re "=") (re.union (str.to.re "&") (re.union (str.to.re "q") (re.union (str.to.re "u") (re.union (str.to.re "o") (re.union (str.to.re "t") (re.union (str.to.re ";") (re.union (str.to.re "&") (re.union (str.to.re "#") (re.union (str.to.re "3") (re.union (str.to.re "9") (re.union (str.to.re ";") (re.union (str.to.re "&") (re.union (str.to.re "l") (re.union (str.to.re "t") (re.union (str.to.re ";") (re.union (str.to.re "&") (re.union (str.to.re "g") (re.union (str.to.re "t") (re.union (str.to.re ";") (re.union (str.to.re ".") (re.union (str.to.re ":") (re.union (str.to.re ";") (str.to.re "?"))))))))))))))))))))))))))))) (re.++ (str.to.re "&") (re.++ (str.to.re "l") (re.++ (str.to.re "t") (re.++ (str.to.re ";") (re.++ (str.to.re "/") (re.++ (str.to.re "a") (re.++ (str.to.re "&") (re.++ (str.to.re "g") (re.++ (str.to.re "t") (str.to.re ";"))))))))))))))))))))))))))) re.all)))))	; match == null
(check-sat)
(get-model)
(pop 1)
(exit)
